100
128
16
28
3
10
49
22
47
11
14
4
51
16
8
59
11
63
37
18
15
31
24
2
32
19
36
59
6
9
47
38
32
43
18
6
54
10
56
8
54
61
21
18
47
38
12
50
62
15
8
25
13
25
25
29
18
23
13
24
28
20
17
48
14
56
35
23
13
15
13
39
20
62
37
60
54
15
27
16
55
61
22
49
27
19
28
18
28
48
23
38
40
37
60
32
31
58
43
38
53
31